
Gurobi 12.0.2 (win64) logging started Wed Nov 26 14:38:43 2025

Set parameter LogFile to value "resultados DATA_1_n20m10b2d2\instancia_10_log.txt"
Set parameter TimeLimit to value 3600
Gurobi Optimizer version 12.0.2 build v12.0.2rc0 (win64 - Windows 10.0 (19045.2))

CPU model: Intel(R) Core(TM) i5-6300U CPU @ 2.40GHz, instruction set [SSE2|AVX|AVX2]
Thread count: 2 physical cores, 4 logical processors, using up to 4 threads

Non-default parameters:
TimeLimit  3600

Optimize a model with 1090 rows, 1481 columns and 299759 nonzeros
Model fingerprint: 0x0607ff9a
Variable types: 0 continuous, 1481 integer (1481 binary)
Coefficient statistics:
  Matrix range     [1e+00, 1e+00]
  Objective range  [4e-02, 3e-01]
  Bounds range     [1e+00, 1e+00]
  RHS range        [1e+00, 2e+01]
Found heuristic solution: objective 0.6830000
Presolve removed 0 rows and 1121 columns
Presolve time: 0.36s
Presolved: 1090 rows, 360 columns, 61072 nonzeros
Found heuristic solution: objective 0.4212500
Variable types: 0 continuous, 360 integer (360 binary)

Root relaxation: objective 9.525000e-01, 673 iterations, 0.09 seconds (0.09 work units)

    Nodes    |    Current Node    |     Objective Bounds      |     Work
 Expl Unexpl |  Obj  Depth IntInf | Incumbent    BestBd   Gap | It/Node Time

     0     0    0.95250    0   10    0.68300    0.95250  39.5%     -    0s
H    0     0                       0.7775000    0.95250  22.5%     -    0s
H    0     0                       0.9175000    0.95250  3.81%     -    0s
H    0     0                       0.9425000    0.95250  1.06%     -    0s
     0     0    0.94400    0   22    0.94250    0.94400  0.16%     -    0s
     0     0    0.94400    0    9    0.94250    0.94400  0.16%     -    0s
     0     0     cutoff    0         0.94250    0.94250  0.00%     -    0s

Cutting planes:
  Gomory: 5
  Cover: 1
  Zero half: 6
  RLT: 1

Explored 1 nodes (1319 simplex iterations) in 0.78 seconds (0.58 work units)
Thread count was 4 (of 4 available processors)

Solution count 7: 0.9425 0.9425 0.9425 ... 0.42125
No other solutions better than 0.9425

Optimal solution found (tolerance 1.00e-04)
Best objective 9.425000000000e-01, best bound 9.425000000000e-01, gap 0.0000%
